c --- [ banner ] -------------------------------------------------------------
c 
c CaDiCaL Radically Simplified CDCL SAT Solver
c Copyright (c) 2016-2021 A. Biere, M. Fleury, N. Froleyks
c 
c Version 1.5.2 ca9bff05c11bde5eae4912f9932871d1527e61d8
c g++ (GCC) 9.3.0 -Wall -Wextra -O3 -DNDEBUG
c Sun May 1 02:23:23 EDT 2022 Linux gra-login1 3.10.0-1160.59.1.el7.x86_64 x86_64
c 
c --- [ limit ] --------------------------------------------------------------
c 
c setting conflict limit to 200000 conflicts (due to '200000')
c 
c --- [ parsing input ] ------------------------------------------------------
c 
c reading DIMACS file from '26.cubes174.adj'
c opening file to read '26.cubes174.adj'
c found 'p cnf 5320 924210' header
c parsed 924210 clauses in 8.90 seconds process time
c closing file '26.cubes174.adj'
c after reading 686668117 bytes 654.9 MB
c 
c --- [ options ] ------------------------------------------------------------
c 
c all options are set to their default value
c 
c --- [ solving ] ------------------------------------------------------------
c 
c time measured in process time since initialization
c 
c  seconds   reductions  redundant  irredundant
c          MB    restarts       trail      variables
c           level   conflicts       glue        remaining
c 
c *  8.90 688  0 0   0    0    0  0% 0 923580 4125 78%
c {  9.54 721  0 0   0    0    0  0% 0 923580 4125 78%
c i  9.66 722 14 0   0    2    1 31% 5 923580 4115 77%
c i 10.93 742 51 0   8   71   61 44% 18 923580 4112 77%
c i 11.07 742 57 0  15  100   88 45% 25 923580 4111 77%
c i 11.40 745 65 0  20  118  103 44% 27 923580 4071 77%
c i 12.25 748 69 0  34  188  166 46% 29 923580 4061 76%
c - 14.95 738 68 1  44  303  271 47% 29 207644 4061 76%
c i 15.08 711 64 1  44  334  298 48% 28 207644 4060 76%
c i 15.14 694 64 1  44  346  309 48% 28 207644 4059 76%
c i 15.14 694 64 1  44  347  309 48% 28 207644 4058 76%
c i 15.19 694 63 1  44  374  332 49% 28 207644 4057 76%
c i 15.20 694 63 1  44  376  333 49% 28 207644 4056 76%
c i 15.23 694 64 1  46  388  343 49% 29 207644 4055 76%
c i 15.46 694 63 1  51  419  369 48% 28 207644 4054 76%
c } 16.39 694 51 1  55 1000  806 51% 27 207644 4054 76%
c [ 16.39 694  0 1  55 1000  806  0% 0 207644 4054 76%
c O 16.40 695 26 1  55 1003  809 47% 12 207644 4054 76%
c i 16.42 695  6 1  55 1021  815 32% 4 207644 4004 75%
c i 16.62 695 12 1  55 1054  840 44% 8 207644 4003 75%
c 
c  seconds   reductions  redundant   irredundant
c          MB    restarts       trail       variables
c           level   conflicts       glue         remaining
c 
c i 16.68 695 15 1  55 1093  872 50% 11 207644 4002 75%
c - 17.01 773 15 2  55 1093  745 50% 11 207017 4002 75%
c i 17.04 773 15 2  55 1097  748 51% 11 207017 4001 75%
c i 17.08 773 17 2  55 1123  770 52% 13 207017 4000 75%
c i 17.08 773 17 2  55 1124  770 52% 13 207017 3999 75%
c i 17.09 773 18 2  55 1149  788 53% 14 207017 3998 75%
c i 17.10 773 18 2  55 1158  795 53% 14 207017 3997 75%
c i 17.10 773 18 2  55 1162  798 53% 14 207017 3996 75%
c i 17.10 773 18 2  55 1181  812 53% 14 207017 3995 75%
c i 17.15 773 17 2  55 1306  900 54% 14 207017 3994 75%
c i 17.19 773 17 2  55 1350  926 53% 13 207017 3993 75%
c i 17.21 773 17 2  55 1365  936 53% 13 207017 3992 75%
c i 17.23 773 17 2  55 1394  953 53% 13 207017 3991 75%
c i 17.28 773 16 2  55 1506 1026 53% 13 207017 3990 75%
c i 17.51 773 18 2  55 1868 1254 54% 14 207017 3989 75%
c - 17.89 772 17 3  56 2277 1126 54% 14 206978 3989 75%
c i 18.18 771 16 3  56 2565 1313 40% 14 206978 3988 75%
c ] 18.34 771 16 3  56 3004 1603 40% 14 206978 3988 75%
c { 18.34 771 51 3  56 3004 1603 68% 27 206978 3988 75%
c F 18.36 771 51 3  56 3005 1604 68% 27 206978 3988 75%
c 
c  seconds   reductions  redundant   irredundant
c          MB    restarts       trail       variables
c           level   conflicts       glue         remaining
c 
c i 19.08 772 52 3  85 3317 1853 60% 27 206978 3987 75%
c i 19.10 772 51 3  85 3337 1871 59% 26 206978 3986 75%
c i 19.32 772 50 3  92 3498 1990 57% 26 206978 3985 75%
c i 19.91 771 51 3 117 3748 2179 54% 26 206978 3984 75%
c - 20.44 771 51 4 126 3856 1692 52% 26 206963 3984 75%
c i 22.28 770 54 4 203 4496 2183 47% 27 206963 3983 75%
c i 22.37 771 54 4 203 4522 2205 47% 27 206963 3982 75%
c i 22.62 771 52 4 203 4957 2559 46% 27 206963 3981 75%
c 2 22.95 771 51 4 203 5004 4178 46% 27 206861 3977 75%
c p 24.47 771 51 4 203 5004 10982 46% 27 206861 3936 74%
c d 24.76 771 51 4 203 5004 10402 46% 27 196295 3931 74%
c - 25.78 695 48 5 222 5831 2515 43% 26 196295 3931 74%
c # 26.08 695 48 5 227 6006 2652 43% 26 196295 3931 74%
c } 27.11 695 43 5 227 7007 3342 42% 24 196295 3931 74%
c [ 27.11 695 16 5 227 7007 3342 40% 14 196295 3931 74%
c - 28.24 695 17 6 228 8158 2878 40% 14 196295 3931 74%
c I 29.73 695 16 6 229 10010 4090 40% 14 196295 3931 74%
c - 31.08 695 22 7 230 10876 3413 40% 18 196295 3931 74%
c - 33.86 695 33 8 232 13979 3804 38% 26 196295 3931 74%
c ] 34.54 695 35 8 232 15007 4559 38% 27 196295 3931 74%
c 
c  seconds   reductions   redundant   irredundant
c          MB    restarts        trail       variables
c           level    conflicts       glue         remaining
c 
c { 34.54 695 43 8 232 15007 4559 42% 24 196295 3931 74%
c 2 34.61 695 43 8 232 15007 6079 42% 24 196285 3931 74%
c p 36.92 695 43 8 232 15007 12473 42% 24 196285 3929 74%
c B 37.08 695 43 8 232 15011 12477 42% 23 196285 3929 74%
c s 37.96 695 40 8 232 15614 12652 42% 22 194623 3929 74%
c v 40.78 695 40 8 232 15614 12652 42% 22 194499 3929 74%
c t 40.90 695 40 8 232 15614 12611 42% 22 194423 3929 74%
c e 41.64 696 40 8 232 15614 6510 42% 22 189293 1224 23%
c s 41.75 696 40 8 232 15614 6510 42% 22 189204 1224 23%
c - 44.34 696 36 9 286 17470 4264 58% 21 189204 1224 23%
c W 45.71 696 30 9 302 21014 6452 59% 19 189204 1224 23%
c - 45.86 696 30 10 302 21300 4507 59% 19 189204 1224 23%
c } 46.63 696 25 10 311 25165 6782 59% 17 189204 1224 23%
c 1 46.63 696 25 10 311 25165 6782 59% 17 189204 1224 23%
c 
c --- [ writing output ] -----------------------------------------------------
c 
c writing simplified CNF to DIMACS file 'simp/26.cubes174.adj.simp1'
c * 46.63 696 25 10 311 25165 6782 59% 17 189204 1224 23%
c opening file to write 'simp/26.cubes174.adj.simp1'
c writing 'p cnf 5320 189204' header
c closing file 'simp/26.cubes174.adj.simp1'
c after writing 74889257 bytes 71.4 MB
c wrote 189204 clauses in 0.55 seconds process time
c 
c --- [ writing extension ] --------------------------------------------------
c 
c writing extension stack to 'simp/26.cubes174.adj.ext1'
c opening file to write 'simp/26.cubes174.adj.ext1'
c closing file 'simp/26.cubes174.adj.ext1'
c after writing 163703 bytes 0.2 MB
c wrote 7321 witnesses in 0.00 seconds process time
c 
c --- [ result ] -------------------------------------------------------------
c 
s SATISFIABLE
c 
c --- [ run-time profiling ] -------------------------------------------------
c 
c process time taken by individual solving procedures
c (percentage relative to process time for solving)
c 
c        28.61   75.84% search
c        18.38   48.71% unstable
c         9.37   24.84% stable
c         9.12   24.16% simplify
c         8.90   23.59% parse
c         3.83   10.16% probe
c         2.90    7.69% vivify
c         1.44    3.82% elim
c         0.64    1.69% lucky
c         0.23    0.60% walk
c         0.22    0.59% subsume
c         0.09    0.24% ternary
c   =================================
c        37.73   79.96% solve
c 
c last line shows process time for solving
c (percentage relative to total process time)
c 
c --- [ statistics ] ---------------------------------------------------------
c 
c chronological:              4727        18.78 %  of conflicts
c conflicts:                 25165       666.96    per second
c decisions:                 52045      1379.37    per second
c eliminated:                 2705        50.85 %  of all variables
c fixed:                      1382        25.98 %  of all variables
c learned:                   24620        97.83 %  per conflict
c learned_lits:            4468367       100.00 %  learned literals
c minimized:                     0         0.00 %  learned literals
c shrunken:                2866344        64.15 %  learned literals
c minishrunken:             345944         7.74 %  learned literals
c propagations:            4412496         0.12 M  per second
c reduced:                    9748        38.74 %  per conflict
c rephased:                      6      4194.17    interval
c restarts:                    311        80.92    interval
c stabilizing:                   2        39.75 %  of conflicts
c substituted:                   9         0.17 %  of all variables
c subsumed:                   9957         0.50 %  of all clauses
c strengthened:              11125         0.56 %  of all clauses
c ternary:                    3110         0.43 %  of resolved
c vivified:                    141         0.01 %  of all clauses
c walked:                        1     25165.00    interval
c weakened:                   5939         3.01    average size
c 
c seconds are measured in process time for solving
c 
c --- [ resources ] ----------------------------------------------------------
c 
c total process time since initialization:        47.19    seconds
c total real time since initialization:           47.46    seconds
c maximum resident set size of process:          850.24    MB
c 
c --- [ shutting down ] ------------------------------------------------------
c 
c exit 10
WARNING! DIMACS header mismatch: wrong number of variables.
============================[ Problem Statistics ]=============================
|                                                                             |
|  Number of variables:          3676                                         |
|  Number of clauses:          189206                                         |
|  Parse time:                   1.10 s                                       |
|  Simplification time:          0.02 s                                       |
|                                                                             |
============================[ Search Statistics ]====================================================
| Conflicts |          ORIGINAL         |          LEARNT          | Num Sols |      SUBGRAPHS      |
|           |    Vars  Clauses Literals |    Limit  Clauses Lit/Cl |          | Canonical Noncanon. |
=====================================================================================================
|       100 |    3599   189206 17170564 |     2000      100     75 |        0 |        24         0 |
|       258 |    3599   189214 17171390 |     2000      258    107 |        0 |        38         8 |
|       517 |    3599   189248 17172301 |     2000      517     90 |        0 |        66        42 |
|       932 |    3599   189326 17174238 |     2000      932     81 |        0 |       115       120 |
|      1504 |    3599   189392 17175868 |     2000     1504     95 |        0 |       143       186 |
|      2276 |    3599   189405 17176277 |     3605     1281     49 |        0 |       183       199 |
|      3435 |    3599   189425 17176843 |     3605     2440     66 |        0 |       199       219 |
|      5435 |    3599   189717 17183130 |     5003     2638     47 |        0 |       332       511 |
|      8309 |    3599   190029 17189528 |     6305     3014     36 |        0 |       418       823 |
|     12597 |    3599   190473 17195855 |     7558     4155     32 |        0 |       574      1267 |
|     18540 |    3599   190650 17199375 |     8790     6330     48 |        0 |       684      1444 |
|     28668 |    3599   192129 17225880 |    11205     7073     34 |        0 |      1114      2923 |
|     42543 |    3599   193030 17242764 |    13612     9155     45 |        0 |      1404      3824 |
|     64910 |    3599   195936 17294583 |    17206     9316     27 |        0 |      1967      6730 |
|     95779 |    3599   197613 17324605 |    20816    12595     39 |        0 |      2663      8407 |
|    142474 |    3599   200519 17372765 |    25620    14094     28 |        0 |      3475     11313 |
|    213552 |    3599   205913 17472176 |    30426    30378     65 |        0 |      4716     16707 |
|    318872 |    3599   212707 17571974 |    37612    35484     62 |        0 |      6108     23501 |
|    483694 |    3599   229740 17774610 |    47218    33112     49 |        0 |      8575     40534 |
|    710427 |    3599   234790 17858589 |    56825    54252     67 |        0 |     10467     45584 |
|   1050082 |    3599   241920 17991621 |    70010    48492     55 |        0 |     13358     52714 |
|   1574923 |    3599   267973 18389706 |    85624    71547     59 |        0 |     18476     78767 |
|   2351274 |    3530   186394 13542673 |    96005    82279     65 |        0 |     24626    106936 |
=====================================================================================================
Number of solutions   : 0
Canonical subgraphs   : 25181          (70 /sec)
          order  3    : 1              (166667 /sec)
          order  4    : 1              (500000 /sec)
          order  5    : 1              (200000 /sec)
          order  6    : 1              (52632 /sec)
          order  7    : 2              (10526 /sec)
          order  8    : 7              (2883 /sec)
          order  9    : 26             (875 /sec)
          order 10    : 115            (293 /sec)
          order 11    : 575            (122 /sec)
          order 12    : 4597           (108 /sec)
          order 13    : 9973           (82 /sec)
          order 14    : 8556           (54 /sec)
          order 15    : 1043           (41 /sec)
          order 16    : 185            (38 /sec)
          order 17    : 35             (34 /sec)
          order 18    : 21             (35 /sec)
          order 19    : 21             (33 /sec)
          order 20    : 21             (31 /sec)
          order 21    : 0              (-nan /sec)
Noncanonical subgraphs: 108807         (1419 /sec)
          order  3    : 0              (-nan /sec)
          order  4    : 0              (-nan /sec)
          order  5    : 0              (-nan /sec)
          order  6    : 0              (-nan /sec)
          order  7    : 0              (-nan /sec)
          order  8    : 0              (-nan /sec)
          order  9    : 0              (-nan /sec)
          order 10    : 0              (-nan /sec)
          order 11    : 0              (-nan /sec)
          order 12    : 0              (-nan /sec)
          order 13    : 80731          (1584 /sec)
          order 14    : 24871          (1749 /sec)
          order 15    : 3136           (300 /sec)
          order 16    : 38             (297 /sec)
          order 17    : 1              (58824 /sec)
          order 18    : 0              (-nan /sec)
          order 19    : 0              (-nan /sec)
          order 20    : 0              (-nan /sec)
Canonicity checking   : 361.405 s
Noncanonicity checking: 76.6544 s
Total canonicity time : 438.059 s
database reductions   : 87
restarts              : 4095
conflicts             : 2432003        (1982 /sec)
decisions             : 3212545        (0.00 % random) (2618 /sec)
propagations          : 158931720      (129510 /sec)
conflict literals     : 256802486      (54.23 % deleted)
actual reward         : 0.193190
Memory used           : 246.00 MB
CPU time              : 1227.17 s

UNSATISFIABLE
